c Random generated cnf formula, satisfiable: true
p cnf 10 50
5 -1 -10 0
1 7 10 0
-8 1 6 0
8 3 -10 0
-7 9 6 0
-5 -10 -7 0
-10 9 3 0
-7 -4 9 0
4 -8 -5 0
-8 -5 9 0
2 8 6 0
-8 -4 -5 0
7 6 -3 0
-7 -8 2 0
5 1 7 0
-1 -10 -4 0
-1 -7 -2 0
3 6 9 0
9 -4 -10 0
9 -10 -8 0
-9 -4 1 0
8 5 10 0
2 6 -9 0
-6 -7 10 0
4 -5 6 0
-1 2 7 0
-6 3 4 0
3 -5 -7 0
-8 -3 -9 0
6 3 -9 0
-4 1 3 0
-5 -10 2 0
-4 9 -8 0
8 9 5 0
2 6 -1 0
-10 7 3 0
5 3 -9 0
-2 -8 1 0
3 7 6 0
-2 -6 -8 0
6 -1 -5 0
2 -9 -6 0
1 -6 4 0
7 -5 -3 0
-8 -10 -7 0
9 1 -7 0
-8 -10 -4 0
-7 3 -6 0
-2 9 -5 0
5 8 -10 0
